122 5
10 10 10 10 10 

0 0 0 0 0 0 5 2 14 26 38 50 
0 0 0 0 0 0 4 3 4 5 8 
6 1 0 0 0 0 3 12 7 6 
2 3 0 0 0 0 3 12 10 6 
6 1 0 0 0 0 2 11 9 
5 2 0 0 0 0 1 9 
2 2 0 0 0 0 1 10 
8 2 0 0 0 0 1 11 
1 1 0 0 0 0 1 13 
1 6 0 0 0 0 1 13 
9 4 0 0 0 0 1 13 
7 3 0 0 0 0 1 13 
0 0 0 0 0 0 1 62 
0 0 0 0 0 0 4 15 16 17 18 
2 1 0 0 0 0 4 24 23 21 19 
10 2 0 0 0 0 2 20 19 
1 2 0 0 0 0 2 23 21 
10 1 0 0 0 0 1 20 
7 5 0 0 0 0 1 22 
8 3 0 0 0 0 1 21 
1 3 0 0 0 0 1 25 
7 3 0 0 0 0 1 25 
10 2 0 0 0 0 1 25 
1 3 0 0 0 0 1 25 
0 0 0 0 0 0 1 62 
0 0 0 0 0 0 2 27 28 
9 0 0 1 0 0 6 34 33 32 31 30 29 
9 0 0 2 0 0 6 34 33 32 31 30 29 
7 0 0 3 0 0 2 36 35 
5 0 0 5 0 0 2 36 35 
5 0 0 3 0 0 2 36 35 
2 0 0 1 0 0 2 36 35 
3 0 0 1 0 0 1 36 
5 0 0 5 0 0 1 35 
2 0 0 2 0 0 1 37 
1 0 0 2 0 0 1 37 
0 0 0 0 0 0 1 62 
0 0 0 0 0 0 5 39 40 42 45 48 
8 0 0 1 0 0 3 44 43 41 
1 0 0 2 0 0 2 43 41 
9 0 0 2 0 0 2 47 46 
8 0 0 3 0 0 1 43 
7 0 0 3 0 0 1 47 
7 0 0 1 0 0 1 46 
5 0 0 2 0 0 1 46 
1 0 0 3 0 0 1 49 
8 0 0 4 0 0 1 49 
2 0 0 4 0 0 1 49 
0 0 0 0 0 0 1 62 
0 0 0 0 0 0 6 51 54 55 58 59 60 
1 0 0 1 0 0 3 57 53 52 
2 0 0 3 0 0 1 56 
2 0 0 3 0 0 1 56 
5 0 0 3 0 0 1 56 
6 0 0 2 0 0 1 56 
9 0 0 4 0 0 1 61 
5 0 0 3 0 0 1 61 
6 0 0 2 0 0 1 61 
7 0 0 1 0 0 1 61 
9 0 0 3 0 0 1 61 
0 0 0 0 0 0 1 62 
0 0 0 0 0 0 2 63 75 
0 0 0 0 0 0 2 64 65 
1 0 0 0 1 0 3 72 70 66 
9 0 0 0 4 0 3 72 71 67 
10 0 0 0 2 0 4 73 71 69 68 
8 0 0 0 1 0 3 70 69 68 
1 0 0 0 5 0 1 74 
5 0 0 0 3 0 1 74 
2 0 0 0 1 0 1 74 
1 0 0 0 3 0 1 74 
5 0 0 0 1 0 1 74 
8 0 0 0 4 0 1 74 
0 0 0 0 0 0 1 87 
0 0 0 0 0 0 7 76 78 81 82 83 84 85 
5 0 0 1 0 0 1 77 
5 0 0 3 0 0 2 80 79 
7 0 0 2 0 0 2 80 79 
3 0 0 4 0 0 1 86 
7 0 0 2 0 0 1 86 
6 0 0 4 0 0 1 86 
6 0 0 2 0 0 1 86 
2 0 0 1 0 0 1 86 
5 0 0 3 0 0 1 86 
2 0 0 3 0 0 1 86 
0 0 0 0 0 0 1 87 
0 0 0 0 0 0 3 88 89 97 
6 0 0 0 0 1 4 96 95 91 90 
6 0 0 0 0 5 3 95 93 90 
2 0 0 0 0 4 2 94 92 
1 0 0 0 0 3 2 93 92 
5 0 0 0 0 2 1 98 
1 0 0 0 0 1 1 98 
10 0 0 0 0 2 1 98 
1 0 0 0 0 2 1 98 
2 0 0 0 0 2 1 98 
8 0 0 0 0 3 1 98 
0 0 0 0 0 0 1 99 
0 0 0 0 0 0 5 100 101 102 104 105 
5 1 0 0 0 0 4 109 108 107 106 
5 2 0 0 0 0 2 108 106 
3 4 0 0 0 0 1 103 
1 6 0 0 0 0 1 106 
1 1 0 0 0 0 1 107 
3 1 0 0 0 0 1 107 
5 3 0 0 0 0 1 110 
2 1 0 0 0 0 1 110 
1 3 0 0 0 0 1 110 
2 3 0 0 0 0 1 110 
0 0 0 0 0 0 1 111 
0 0 0 0 0 0 4 112 113 115 121 
5 0 0 1 0 0 2 120 114 
9 0 0 2 0 0 4 119 118 117 116 
7 0 0 2 0 0 3 118 117 116 
2 0 0 1 0 0 3 119 117 116 
3 0 0 2 0 0 1 122 
1 0 0 4 0 0 1 122 
9 0 0 1 0 0 1 122 
9 0 0 3 0 0 1 122 
4 0 0 5 0 0 1 122 
7 0 0 4 0 0 1 122 
0 0 0 0 0 0 0 
